
Gurobi 12.0.3 (linux64) logging started Fri Jan  2 04:15:54 2026

Set parameter LogFile to value "/home/bazzo/Scrivania/fjsp_rescheduling/simulations/logs/EX16/gurobi_exp16.log"
Set parameter OutputFlag to value 1
Set parameter TimeLimit to value 2160
Set parameter Presolve to value 2
Set parameter MIPFocus to value 3
Set parameter Heuristics to value 0.1
Set parameter ImproveStartGap to value 0.5
Set parameter Presolve to value 2
Gurobi Optimizer version 12.0.3 build v12.0.3rc0 (linux64 - "Ubuntu 22.04.5 LTS")

CPU model: Intel(R) Xeon(R) W-2145 CPU @ 3.70GHz, instruction set [SSE2|AVX|AVX2|AVX512]
Thread count: 8 physical cores, 16 logical processors, using up to 16 threads

Non-default parameters:
TimeLimit  2160
Heuristics  0.1
MIPFocus  3
Presolve  2
ImproveStartGap  0.5

Optimize a model with 18309 rows, 1551 columns and 88993 nonzeros
Model fingerprint: 0x1a17bef2
Model has 10 quadratic constraints
Variable types: 10 continuous, 1541 integer (1470 binary)
Coefficient statistics:
  Matrix range     [1e+00, 2e+02]
  QMatrix range    [1e+00, 1e+00]
  QLMatrix range   [1e+00, 1e+00]
  Objective range  [1e+00, 1e+00]
  Bounds range     [1e+00, 1e+00]
  RHS range        [1e+00, 6e+02]
Presolve removed 14992 rows and 1209 columns
Presolve time: 0.15s
Presolved: 3317 rows, 342 columns, 33953 nonzeros
Presolved model has 10 quadratic constraint(s)
Variable types: 10 continuous, 332 integer (308 binary)
Root relaxation presolve removed 0 rows and 16 columns
Root relaxation presolved: 3317 rows, 326 columns, 33947 nonzeros


Root relaxation: objective 1.000000e+00, 141 iterations, 0.01 seconds (0.02 work units)

    Nodes    |    Current Node    |     Objective Bounds      |     Work
 Expl Unexpl |  Obj  Depth IntInf | Incumbent    BestBd   Gap | It/Node Time

H    0     0                    66816.000000    1.00000   100%     -    0s
*    0     0               0    66816.000000    1.00000   100%     -    0s
     0     0    1.00000    0   17 66816.0000    1.00000   100%     -    0s
H    0     0                    16819.000000    1.00000   100%     -    0s
H    0     0                    8653.0000000    1.00000   100%     -    0s
H    0     0                    8470.0000000    1.00000   100%     -    0s
H    0     0                     129.0000000    1.00000  99.2%     -    0s
H    0     0                     126.0000000    1.00000  99.2%     -    0s
H    0     0                      56.0000000    1.00000  98.2%     -    0s
H    0     0                       2.0000000    1.00000  50.0%     -    0s
H    0     0                       1.0000000    1.00000  0.00%     -    0s

Cutting planes:
  Gomory: 1
  Lift-and-project: 1
  Implied bound: 2
  Flow cover: 8

Explored 1 nodes (274 simplex iterations) in 0.49 seconds (0.62 work units)
Thread count was 16 (of 16 available processors)

Solution count 9: 1 2 56 ... 66816

Optimal solution found (tolerance 1.00e-04)
Best objective 1.000000000000e+00, best bound 1.000000000000e+00, gap 0.0000%

User-callback calls 1246, time in user-callback 0.00 sec
Set parameter TimeLimit to value 1080
Gurobi Optimizer version 12.0.3 build v12.0.3rc0 (linux64 - "Ubuntu 22.04.5 LTS")

CPU model: Intel(R) Xeon(R) W-2145 CPU @ 3.70GHz, instruction set [SSE2|AVX|AVX2|AVX512]
Thread count: 8 physical cores, 16 logical processors, using up to 16 threads

Non-default parameters:
TimeLimit  1080
Heuristics  0.1
MIPFocus  3
Presolve  2
ImproveStartGap  0.5

Optimize a model with 18310 rows, 1551 columns and 89003 nonzeros
Model fingerprint: 0x49bec5d4
Model has 10 quadratic constraints
Variable types: 10 continuous, 1541 integer (1470 binary)
Coefficient statistics:
  Matrix range     [1e+00, 2e+02]
  QMatrix range    [1e+00, 1e+00]
  QLMatrix range   [1e+00, 1e+00]
  Objective range  [5e-01, 5e-01]
  Bounds range     [1e+00, 1e+00]
  RHS range        [1e+00, 6e+02]

MIP start from previous solve produced solution with objective 150 (0.01s)
Loaded MIP start from previous solve with objective 150

Presolve removed 18310 rows and 1551 columns
Presolve time: 0.02s
Presolve: All rows and columns removed

Explored 0 nodes (0 simplex iterations) in 0.03 seconds (0.04 work units)
Thread count was 1 (of 16 available processors)

Solution count 2: 3 150 

Optimal solution found (tolerance 1.00e-04)
Best objective 3.000000000000e+00, best bound 3.000000000000e+00, gap 0.0000%

User-callback calls 644, time in user-callback 0.00 sec
Set parameter TimeLimit to value 360
Gurobi Optimizer version 12.0.3 build v12.0.3rc0 (linux64 - "Ubuntu 22.04.5 LTS")

CPU model: Intel(R) Xeon(R) W-2145 CPU @ 3.70GHz, instruction set [SSE2|AVX|AVX2|AVX512]
Thread count: 8 physical cores, 16 logical processors, using up to 16 threads

Non-default parameters:
TimeLimit  360
Heuristics  0.1
MIPFocus  3
Presolve  2
ImproveStartGap  0.5

Optimize a model with 18312 rows, 1551 columns and 89313 nonzeros
Model fingerprint: 0x377c9dbd
Model has 10 quadratic constraints
Variable types: 10 continuous, 1541 integer (1470 binary)
Coefficient statistics:
  Matrix range     [5e-01, 2e+02]
  QMatrix range    [1e+00, 1e+00]
  QLMatrix range   [1e+00, 1e+00]
  Objective range  [1e+00, 1e+00]
  Bounds range     [1e+00, 1e+00]
  RHS range        [1e+00, 6e+02]

MIP start from previous solve produced solution with objective 8 (0.01s)
Loaded MIP start from previous solve with objective 8

Presolve removed 18312 rows and 1551 columns
Presolve time: 0.02s
Presolve: All rows and columns removed

Explored 0 nodes (0 simplex iterations) in 0.03 seconds (0.04 work units)
Thread count was 1 (of 16 available processors)

Solution count 1: 8 

Optimal solution found (tolerance 1.00e-04)
Best objective 8.000000000000e+00, best bound 8.000000000000e+00, gap 0.0000%

User-callback calls 440, time in user-callback 0.00 sec
